experiment/data/lkh-res/Vrp-Set-B-n45/Vrp-Set-B-n45-lkh/0.lkh1.vrp
NAME : 0
COMMENT : CVRP Instance
TYPE : CVRP
DIMENSION : 45
EDGE_WEIGHT_TYPE : EUC_2D
CAPACITY : 100
NODE_COORD_SECTION
1	5300	2200
2	3400	2800
3	200	500
4	4000	8500
5	8800	3800
6	7400	2000
7	8200	2100
8	0	4600
9	8400	3100
10	1100	1200
11	4200	3700
12	9000	4400
13	8500	2200
14	900	800
15	400	5100
16	300	1000
17	9000	4000
18	4100	3300
19	1000	5000
20	9600	4500
21	4800	9000
22	8700	3100
23	7900	2600
24	3900	3200
25	0	9100
26	8900	4500
27	9100	4600
28	300	5300
29	4400	0
30	8900	4100
31	4000	3200
32	4200	8600
33	0	1300
34	9700	4500
35	100	5000
36	4500	9400
37	3600	3300
38	400	1500
39	4200	8800
40	4200	2900
41	9200	0
42	7500	2600
43	7800	0
44	7700	2900
45	500	4700
DEMAND_SECTION
1	0
2	1
3	19
4	19
5	22
6	20
7	11
8	2
9	5
10	20
11	22
12	2
13	2
14	11
15	22
16	19
17	3
18	1
19	2
20	16
21	2
22	13
23	7
24	8
25	16
26	14
27	4
28	14
29	7
30	20
31	14
32	7
33	9
34	7
35	5
36	10
37	13
38	25
39	1
40	22
41	9
42	3
43	8
44	10
45	19
DEPOT_SECTION
1
-1
EOF
