experiment/data/lkh-res/Vrp-Set-B-n45/Vrp-Set-B-n45-lkh/0.lkh1.tour
NAME : 0.75394.tour
COMMENT : Length = 75394
COMMENT : Found by LKH-3 [Keld Helsgaun] Tue Apr  9 00:55:56 2024
TYPE : TOUR
DIMENSION : 49
TOUR_SECTION
1
18
37
19
45
15
28
35
8
10
48
30
12
26
27
20
34
17
5
44
49
11
4
32
39
21
36
25
24
31
47
2
38
33
16
3
14
29
46
43
41
7
13
22
9
23
42
6
40
-1
EOF
